Minimize
x16 + x18 + x20 + x22 + x28 + x30 + x32 + x34 + x40 + x42 + x44 + x46 + x52 + x54 + x56 + x58 + x64 + x66 + x68 + x70 + x76 + x78 + x80 + x82 + x88 + x90 + x92 + x94 + x100 + x102 + x104 + x106 + x112 + x114 + x116 + x118 + x124 + x126 + x128 + x130 + x136 + x138 + x140 + x142 + x148 + x150 + x152 + x154 + x160 + x162 + x164 + x166 + x172 + x174 + x176 + x178 + x184 + x186 + x188 + x190 + x196 + x198 + x200 + x202 + x208 + x210 + x212 + x214 + x220 + x222 + x224 + x226 + x232 + x234 + x236 + x238 + x244 + x246 + x248 + x250 + x256 + x258 + x260 + x262 + x268 + x270 + x272 + x274 + x280 + x282 + x284 + x286 + x292 + x294 + x296 + x298 + x304 + x306 + x308 + x310 + x316 + x318 + x320 + x322 + 
Subject To
\BRANCH
x0 + x16 + x17 - 2 d0 >= 0
d0 - x0 >= 0
d0 - x16 >= 0
d0 - x17 >= 0
\BRANCH
x1 + x18 + x19 - 2 d1 >= 0
d1 - x1 >= 0
d1 - x18 >= 0
d1 - x19 >= 0
\BRANCH
x2 + x20 + x21 - 2 d2 >= 0
d2 - x2 >= 0
d2 - x20 >= 0
d2 - x21 >= 0
\BRANCH
x3 + x22 + x23 - 2 d3 >= 0
d3 - x3 >= 0
d3 - x22 >= 0
d3 - x23 >= 0
\Clefia S0
\M_0
x16 + x18 + x20 + x22 + x24 + x25 + x26 + x27 - 5 d4 >= 0
d4 - x16 >= 0
d4 - x18 >= 0
d4 - x20 >= 0
d4 - x22 >= 0
d4 - x24 >= 0
d4 - x25 >= 0
d4 - x26 >= 0
d4 - x27 >= 0
\XOR
x4 - x24 = 0
\XOR
x5 - x25 = 0
\XOR
x6 - x26 = 0
\XOR
x7 - x27 = 0
\BRANCH
x8 + x28 + x29 - 2 d5 >= 0
d5 - x8 >= 0
d5 - x28 >= 0
d5 - x29 >= 0
\BRANCH
x9 + x30 + x31 - 2 d6 >= 0
d6 - x9 >= 0
d6 - x30 >= 0
d6 - x31 >= 0
\BRANCH
x10 + x32 + x33 - 2 d7 >= 0
d7 - x10 >= 0
d7 - x32 >= 0
d7 - x33 >= 0
\BRANCH
x11 + x34 + x35 - 2 d8 >= 0
d8 - x11 >= 0
d8 - x34 >= 0
d8 - x35 >= 0
\Clefia S1
\M_1
x28 + x30 + x32 + x34 + x36 + x37 + x38 + x39 - 5 d9 >= 0
d9 - x28 >= 0
d9 - x30 >= 0
d9 - x32 >= 0
d9 - x34 >= 0
d9 - x36 >= 0
d9 - x37 >= 0
d9 - x38 >= 0
d9 - x39 >= 0
\XOR
x12 - x36 = 0
\XOR
x13 - x37 = 0
\XOR
x14 - x38 = 0
\XOR
x15 - x39 = 0
\Identity
\Identity
\Identity
\Identity
\Identity
\Identity
\Identity
\Identity
\Identity
\Identity
\Identity
\Identity
\Identity
\Identity
\Identity
\Identity
\BRANCH
x4 + x40 + x41 - 2 d10 >= 0
d10 - x4 >= 0
d10 - x40 >= 0
d10 - x41 >= 0
\BRANCH
x5 + x42 + x43 - 2 d11 >= 0
d11 - x5 >= 0
d11 - x42 >= 0
d11 - x43 >= 0
\BRANCH
x6 + x44 + x45 - 2 d12 >= 0
d12 - x6 >= 0
d12 - x44 >= 0
d12 - x45 >= 0
\BRANCH
x7 + x46 + x47 - 2 d13 >= 0
d13 - x7 >= 0
d13 - x46 >= 0
d13 - x47 >= 0
\Clefia S0
\M_0
x40 + x42 + x44 + x46 + x48 + x49 + x50 + x51 - 5 d14 >= 0
d14 - x40 >= 0
d14 - x42 >= 0
d14 - x44 >= 0
d14 - x46 >= 0
d14 - x48 >= 0
d14 - x49 >= 0
d14 - x50 >= 0
d14 - x51 >= 0
\XOR
x29 - x48 = 0
\XOR
x31 - x49 = 0
\XOR
x33 - x50 = 0
\XOR
x35 - x51 = 0
\BRANCH
x12 + x52 + x53 - 2 d15 >= 0
d15 - x12 >= 0
d15 - x52 >= 0
d15 - x53 >= 0
\BRANCH
x13 + x54 + x55 - 2 d16 >= 0
d16 - x13 >= 0
d16 - x54 >= 0
d16 - x55 >= 0
\BRANCH
x14 + x56 + x57 - 2 d17 >= 0
d17 - x14 >= 0
d17 - x56 >= 0
d17 - x57 >= 0
\BRANCH
x15 + x58 + x59 - 2 d18 >= 0
d18 - x15 >= 0
d18 - x58 >= 0
d18 - x59 >= 0
\Clefia S1
\M_1
x52 + x54 + x56 + x58 + x60 + x61 + x62 + x63 - 5 d19 >= 0
d19 - x52 >= 0
d19 - x54 >= 0
d19 - x56 >= 0
d19 - x58 >= 0
d19 - x60 >= 0
d19 - x61 >= 0
d19 - x62 >= 0
d19 - x63 >= 0
\XOR
x17 - x60 = 0
\XOR
x19 - x61 = 0
\XOR
x21 - x62 = 0
\XOR
x23 - x63 = 0
\Identity
\Identity
\Identity
\Identity
\Identity
\Identity
\Identity
\Identity
\Identity
\Identity
\Identity
\Identity
\Identity
\Identity
\Identity
\Identity
\BRANCH
x29 + x64 + x65 - 2 d20 >= 0
d20 - x29 >= 0
d20 - x64 >= 0
d20 - x65 >= 0
\BRANCH
x31 + x66 + x67 - 2 d21 >= 0
d21 - x31 >= 0
d21 - x66 >= 0
d21 - x67 >= 0
\BRANCH
x33 + x68 + x69 - 2 d22 >= 0
d22 - x33 >= 0
d22 - x68 >= 0
d22 - x69 >= 0
\BRANCH
x35 + x70 + x71 - 2 d23 >= 0
d23 - x35 >= 0
d23 - x70 >= 0
d23 - x71 >= 0
\Clefia S0
\M_0
x64 + x66 + x68 + x70 + x72 + x73 + x74 + x75 - 5 d24 >= 0
d24 - x64 >= 0
d24 - x66 >= 0
d24 - x68 >= 0
d24 - x70 >= 0
d24 - x72 >= 0
d24 - x73 >= 0
d24 - x74 >= 0
d24 - x75 >= 0
\XOR
x53 - x72 = 0
\XOR
x55 - x73 = 0
\XOR
x57 - x74 = 0
\XOR
x59 - x75 = 0
\BRANCH
x17 + x76 + x77 - 2 d25 >= 0
d25 - x17 >= 0
d25 - x76 >= 0
d25 - x77 >= 0
\BRANCH
x19 + x78 + x79 - 2 d26 >= 0
d26 - x19 >= 0
d26 - x78 >= 0
d26 - x79 >= 0
\BRANCH
x21 + x80 + x81 - 2 d27 >= 0
d27 - x21 >= 0
d27 - x80 >= 0
d27 - x81 >= 0
\BRANCH
x23 + x82 + x83 - 2 d28 >= 0
d28 - x23 >= 0
d28 - x82 >= 0
d28 - x83 >= 0
\Clefia S1
\M_1
x76 + x78 + x80 + x82 + x84 + x85 + x86 + x87 - 5 d29 >= 0
d29 - x76 >= 0
d29 - x78 >= 0
d29 - x80 >= 0
d29 - x82 >= 0
d29 - x84 >= 0
d29 - x85 >= 0
d29 - x86 >= 0
d29 - x87 >= 0
\XOR
x41 - x84 = 0
\XOR
x43 - x85 = 0
\XOR
x45 - x86 = 0
\XOR
x47 - x87 = 0
\Identity
\Identity
\Identity
\Identity
\Identity
\Identity
\Identity
\Identity
\Identity
\Identity
\Identity
\Identity
\Identity
\Identity
\Identity
\Identity
\BRANCH
x53 + x88 + x89 - 2 d30 >= 0
d30 - x53 >= 0
d30 - x88 >= 0
d30 - x89 >= 0
\BRANCH
x55 + x90 + x91 - 2 d31 >= 0
d31 - x55 >= 0
d31 - x90 >= 0
d31 - x91 >= 0
\BRANCH
x57 + x92 + x93 - 2 d32 >= 0
d32 - x57 >= 0
d32 - x92 >= 0
d32 - x93 >= 0
\BRANCH
x59 + x94 + x95 - 2 d33 >= 0
d33 - x59 >= 0
d33 - x94 >= 0
d33 - x95 >= 0
\Clefia S0
\M_0
x88 + x90 + x92 + x94 + x96 + x97 + x98 + x99 - 5 d34 >= 0
d34 - x88 >= 0
d34 - x90 >= 0
d34 - x92 >= 0
d34 - x94 >= 0
d34 - x96 >= 0
d34 - x97 >= 0
d34 - x98 >= 0
d34 - x99 >= 0
\XOR
x77 - x96 = 0
\XOR
x79 - x97 = 0
\XOR
x81 - x98 = 0
\XOR
x83 - x99 = 0
\BRANCH
x41 + x100 + x101 - 2 d35 >= 0
d35 - x41 >= 0
d35 - x100 >= 0
d35 - x101 >= 0
\BRANCH
x43 + x102 + x103 - 2 d36 >= 0
d36 - x43 >= 0
d36 - x102 >= 0
d36 - x103 >= 0
\BRANCH
x45 + x104 + x105 - 2 d37 >= 0
d37 - x45 >= 0
d37 - x104 >= 0
d37 - x105 >= 0
\BRANCH
x47 + x106 + x107 - 2 d38 >= 0
d38 - x47 >= 0
d38 - x106 >= 0
d38 - x107 >= 0
\Clefia S1
\M_1
x100 + x102 + x104 + x106 + x108 + x109 + x110 + x111 - 5 d39 >= 0
d39 - x100 >= 0
d39 - x102 >= 0
d39 - x104 >= 0
d39 - x106 >= 0
d39 - x108 >= 0
d39 - x109 >= 0
d39 - x110 >= 0
d39 - x111 >= 0
\XOR
x65 - x108 = 0
\XOR
x67 - x109 = 0
\XOR
x69 - x110 = 0
\XOR
x71 - x111 = 0
\Identity
\Identity
\Identity
\Identity
\Identity
\Identity
\Identity
\Identity
\Identity
\Identity
\Identity
\Identity
\Identity
\Identity
\Identity
\Identity
\BRANCH
x77 + x112 + x113 - 2 d40 >= 0
d40 - x77 >= 0
d40 - x112 >= 0
d40 - x113 >= 0
\BRANCH
x79 + x114 + x115 - 2 d41 >= 0
d41 - x79 >= 0
d41 - x114 >= 0
d41 - x115 >= 0
\BRANCH
x81 + x116 + x117 - 2 d42 >= 0
d42 - x81 >= 0
d42 - x116 >= 0
d42 - x117 >= 0
\BRANCH
x83 + x118 + x119 - 2 d43 >= 0
d43 - x83 >= 0
d43 - x118 >= 0
d43 - x119 >= 0
\Clefia S0
\M_0
x112 + x114 + x116 + x118 + x120 + x121 + x122 + x123 - 5 d44 >= 0
d44 - x112 >= 0
d44 - x114 >= 0
d44 - x116 >= 0
d44 - x118 >= 0
d44 - x120 >= 0
d44 - x121 >= 0
d44 - x122 >= 0
d44 - x123 >= 0
\XOR
x101 - x120 = 0
\XOR
x103 - x121 = 0
\XOR
x105 - x122 = 0
\XOR
x107 - x123 = 0
\BRANCH
x65 + x124 + x125 - 2 d45 >= 0
d45 - x65 >= 0
d45 - x124 >= 0
d45 - x125 >= 0
\BRANCH
x67 + x126 + x127 - 2 d46 >= 0
d46 - x67 >= 0
d46 - x126 >= 0
d46 - x127 >= 0
\BRANCH
x69 + x128 + x129 - 2 d47 >= 0
d47 - x69 >= 0
d47 - x128 >= 0
d47 - x129 >= 0
\BRANCH
x71 + x130 + x131 - 2 d48 >= 0
d48 - x71 >= 0
d48 - x130 >= 0
d48 - x131 >= 0
\Clefia S1
\M_1
x124 + x126 + x128 + x130 + x132 + x133 + x134 + x135 - 5 d49 >= 0
d49 - x124 >= 0
d49 - x126 >= 0
d49 - x128 >= 0
d49 - x130 >= 0
d49 - x132 >= 0
d49 - x133 >= 0
d49 - x134 >= 0
d49 - x135 >= 0
\XOR
x89 - x132 = 0
\XOR
x91 - x133 = 0
\XOR
x93 - x134 = 0
\XOR
x95 - x135 = 0
\Identity
\Identity
\Identity
\Identity
\Identity
\Identity
\Identity
\Identity
\Identity
\Identity
\Identity
\Identity
\Identity
\Identity
\Identity
\Identity
\BRANCH
x101 + x136 + x137 - 2 d50 >= 0
d50 - x101 >= 0
d50 - x136 >= 0
d50 - x137 >= 0
\BRANCH
x103 + x138 + x139 - 2 d51 >= 0
d51 - x103 >= 0
d51 - x138 >= 0
d51 - x139 >= 0
\BRANCH
x105 + x140 + x141 - 2 d52 >= 0
d52 - x105 >= 0
d52 - x140 >= 0
d52 - x141 >= 0
\BRANCH
x107 + x142 + x143 - 2 d53 >= 0
d53 - x107 >= 0
d53 - x142 >= 0
d53 - x143 >= 0
\Clefia S0
\M_0
x136 + x138 + x140 + x142 + x144 + x145 + x146 + x147 - 5 d54 >= 0
d54 - x136 >= 0
d54 - x138 >= 0
d54 - x140 >= 0
d54 - x142 >= 0
d54 - x144 >= 0
d54 - x145 >= 0
d54 - x146 >= 0
d54 - x147 >= 0
\XOR
x125 - x144 = 0
\XOR
x127 - x145 = 0
\XOR
x129 - x146 = 0
\XOR
x131 - x147 = 0
\BRANCH
x89 + x148 + x149 - 2 d55 >= 0
d55 - x89 >= 0
d55 - x148 >= 0
d55 - x149 >= 0
\BRANCH
x91 + x150 + x151 - 2 d56 >= 0
d56 - x91 >= 0
d56 - x150 >= 0
d56 - x151 >= 0
\BRANCH
x93 + x152 + x153 - 2 d57 >= 0
d57 - x93 >= 0
d57 - x152 >= 0
d57 - x153 >= 0
\BRANCH
x95 + x154 + x155 - 2 d58 >= 0
d58 - x95 >= 0
d58 - x154 >= 0
d58 - x155 >= 0
\Clefia S1
\M_1
x148 + x150 + x152 + x154 + x156 + x157 + x158 + x159 - 5 d59 >= 0
d59 - x148 >= 0
d59 - x150 >= 0
d59 - x152 >= 0
d59 - x154 >= 0
d59 - x156 >= 0
d59 - x157 >= 0
d59 - x158 >= 0
d59 - x159 >= 0
\XOR
x113 - x156 = 0
\XOR
x115 - x157 = 0
\XOR
x117 - x158 = 0
\XOR
x119 - x159 = 0
\Identity
\Identity
\Identity
\Identity
\Identity
\Identity
\Identity
\Identity
\Identity
\Identity
\Identity
\Identity
\Identity
\Identity
\Identity
\Identity
\BRANCH
x125 + x160 + x161 - 2 d60 >= 0
d60 - x125 >= 0
d60 - x160 >= 0
d60 - x161 >= 0
\BRANCH
x127 + x162 + x163 - 2 d61 >= 0
d61 - x127 >= 0
d61 - x162 >= 0
d61 - x163 >= 0
\BRANCH
x129 + x164 + x165 - 2 d62 >= 0
d62 - x129 >= 0
d62 - x164 >= 0
d62 - x165 >= 0
\BRANCH
x131 + x166 + x167 - 2 d63 >= 0
d63 - x131 >= 0
d63 - x166 >= 0
d63 - x167 >= 0
\Clefia S0
\M_0
x160 + x162 + x164 + x166 + x168 + x169 + x170 + x171 - 5 d64 >= 0
d64 - x160 >= 0
d64 - x162 >= 0
d64 - x164 >= 0
d64 - x166 >= 0
d64 - x168 >= 0
d64 - x169 >= 0
d64 - x170 >= 0
d64 - x171 >= 0
\XOR
x149 - x168 = 0
\XOR
x151 - x169 = 0
\XOR
x153 - x170 = 0
\XOR
x155 - x171 = 0
\BRANCH
x113 + x172 + x173 - 2 d65 >= 0
d65 - x113 >= 0
d65 - x172 >= 0
d65 - x173 >= 0
\BRANCH
x115 + x174 + x175 - 2 d66 >= 0
d66 - x115 >= 0
d66 - x174 >= 0
d66 - x175 >= 0
\BRANCH
x117 + x176 + x177 - 2 d67 >= 0
d67 - x117 >= 0
d67 - x176 >= 0
d67 - x177 >= 0
\BRANCH
x119 + x178 + x179 - 2 d68 >= 0
d68 - x119 >= 0
d68 - x178 >= 0
d68 - x179 >= 0
\Clefia S1
\M_1
x172 + x174 + x176 + x178 + x180 + x181 + x182 + x183 - 5 d69 >= 0
d69 - x172 >= 0
d69 - x174 >= 0
d69 - x176 >= 0
d69 - x178 >= 0
d69 - x180 >= 0
d69 - x181 >= 0
d69 - x182 >= 0
d69 - x183 >= 0
\XOR
x137 - x180 = 0
\XOR
x139 - x181 = 0
\XOR
x141 - x182 = 0
\XOR
x143 - x183 = 0
\Identity
\Identity
\Identity
\Identity
\Identity
\Identity
\Identity
\Identity
\Identity
\Identity
\Identity
\Identity
\Identity
\Identity
\Identity
\Identity
\BRANCH
x149 + x184 + x185 - 2 d70 >= 0
d70 - x149 >= 0
d70 - x184 >= 0
d70 - x185 >= 0
\BRANCH
x151 + x186 + x187 - 2 d71 >= 0
d71 - x151 >= 0
d71 - x186 >= 0
d71 - x187 >= 0
\BRANCH
x153 + x188 + x189 - 2 d72 >= 0
d72 - x153 >= 0
d72 - x188 >= 0
d72 - x189 >= 0
\BRANCH
x155 + x190 + x191 - 2 d73 >= 0
d73 - x155 >= 0
d73 - x190 >= 0
d73 - x191 >= 0
\Clefia S0
\M_0
x184 + x186 + x188 + x190 + x192 + x193 + x194 + x195 - 5 d74 >= 0
d74 - x184 >= 0
d74 - x186 >= 0
d74 - x188 >= 0
d74 - x190 >= 0
d74 - x192 >= 0
d74 - x193 >= 0
d74 - x194 >= 0
d74 - x195 >= 0
\XOR
x173 - x192 = 0
\XOR
x175 - x193 = 0
\XOR
x177 - x194 = 0
\XOR
x179 - x195 = 0
\BRANCH
x137 + x196 + x197 - 2 d75 >= 0
d75 - x137 >= 0
d75 - x196 >= 0
d75 - x197 >= 0
\BRANCH
x139 + x198 + x199 - 2 d76 >= 0
d76 - x139 >= 0
d76 - x198 >= 0
d76 - x199 >= 0
\BRANCH
x141 + x200 + x201 - 2 d77 >= 0
d77 - x141 >= 0
d77 - x200 >= 0
d77 - x201 >= 0
\BRANCH
x143 + x202 + x203 - 2 d78 >= 0
d78 - x143 >= 0
d78 - x202 >= 0
d78 - x203 >= 0
\Clefia S1
\M_1
x196 + x198 + x200 + x202 + x204 + x205 + x206 + x207 - 5 d79 >= 0
d79 - x196 >= 0
d79 - x198 >= 0
d79 - x200 >= 0
d79 - x202 >= 0
d79 - x204 >= 0
d79 - x205 >= 0
d79 - x206 >= 0
d79 - x207 >= 0
\XOR
x161 - x204 = 0
\XOR
x163 - x205 = 0
\XOR
x165 - x206 = 0
\XOR
x167 - x207 = 0
\Identity
\Identity
\Identity
\Identity
\Identity
\Identity
\Identity
\Identity
\Identity
\Identity
\Identity
\Identity
\Identity
\Identity
\Identity
\Identity
\BRANCH
x173 + x208 + x209 - 2 d80 >= 0
d80 - x173 >= 0
d80 - x208 >= 0
d80 - x209 >= 0
\BRANCH
x175 + x210 + x211 - 2 d81 >= 0
d81 - x175 >= 0
d81 - x210 >= 0
d81 - x211 >= 0
\BRANCH
x177 + x212 + x213 - 2 d82 >= 0
d82 - x177 >= 0
d82 - x212 >= 0
d82 - x213 >= 0
\BRANCH
x179 + x214 + x215 - 2 d83 >= 0
d83 - x179 >= 0
d83 - x214 >= 0
d83 - x215 >= 0
\Clefia S0
\M_0
x208 + x210 + x212 + x214 + x216 + x217 + x218 + x219 - 5 d84 >= 0
d84 - x208 >= 0
d84 - x210 >= 0
d84 - x212 >= 0
d84 - x214 >= 0
d84 - x216 >= 0
d84 - x217 >= 0
d84 - x218 >= 0
d84 - x219 >= 0
\XOR
x197 - x216 = 0
\XOR
x199 - x217 = 0
\XOR
x201 - x218 = 0
\XOR
x203 - x219 = 0
\BRANCH
x161 + x220 + x221 - 2 d85 >= 0
d85 - x161 >= 0
d85 - x220 >= 0
d85 - x221 >= 0
\BRANCH
x163 + x222 + x223 - 2 d86 >= 0
d86 - x163 >= 0
d86 - x222 >= 0
d86 - x223 >= 0
\BRANCH
x165 + x224 + x225 - 2 d87 >= 0
d87 - x165 >= 0
d87 - x224 >= 0
d87 - x225 >= 0
\BRANCH
x167 + x226 + x227 - 2 d88 >= 0
d88 - x167 >= 0
d88 - x226 >= 0
d88 - x227 >= 0
\Clefia S1
\M_1
x220 + x222 + x224 + x226 + x228 + x229 + x230 + x231 - 5 d89 >= 0
d89 - x220 >= 0
d89 - x222 >= 0
d89 - x224 >= 0
d89 - x226 >= 0
d89 - x228 >= 0
d89 - x229 >= 0
d89 - x230 >= 0
d89 - x231 >= 0
\XOR
x185 - x228 = 0
\XOR
x187 - x229 = 0
\XOR
x189 - x230 = 0
\XOR
x191 - x231 = 0
\Identity
\Identity
\Identity
\Identity
\Identity
\Identity
\Identity
\Identity
\Identity
\Identity
\Identity
\Identity
\Identity
\Identity
\Identity
\Identity
\BRANCH
x197 + x232 + x233 - 2 d90 >= 0
d90 - x197 >= 0
d90 - x232 >= 0
d90 - x233 >= 0
\BRANCH
x199 + x234 + x235 - 2 d91 >= 0
d91 - x199 >= 0
d91 - x234 >= 0
d91 - x235 >= 0
\BRANCH
x201 + x236 + x237 - 2 d92 >= 0
d92 - x201 >= 0
d92 - x236 >= 0
d92 - x237 >= 0
\BRANCH
x203 + x238 + x239 - 2 d93 >= 0
d93 - x203 >= 0
d93 - x238 >= 0
d93 - x239 >= 0
\Clefia S0
\M_0
x232 + x234 + x236 + x238 + x240 + x241 + x242 + x243 - 5 d94 >= 0
d94 - x232 >= 0
d94 - x234 >= 0
d94 - x236 >= 0
d94 - x238 >= 0
d94 - x240 >= 0
d94 - x241 >= 0
d94 - x242 >= 0
d94 - x243 >= 0
\XOR
x221 - x240 = 0
\XOR
x223 - x241 = 0
\XOR
x225 - x242 = 0
\XOR
x227 - x243 = 0
\BRANCH
x185 + x244 + x245 - 2 d95 >= 0
d95 - x185 >= 0
d95 - x244 >= 0
d95 - x245 >= 0
\BRANCH
x187 + x246 + x247 - 2 d96 >= 0
d96 - x187 >= 0
d96 - x246 >= 0
d96 - x247 >= 0
\BRANCH
x189 + x248 + x249 - 2 d97 >= 0
d97 - x189 >= 0
d97 - x248 >= 0
d97 - x249 >= 0
\BRANCH
x191 + x250 + x251 - 2 d98 >= 0
d98 - x191 >= 0
d98 - x250 >= 0
d98 - x251 >= 0
\Clefia S1
\M_1
x244 + x246 + x248 + x250 + x252 + x253 + x254 + x255 - 5 d99 >= 0
d99 - x244 >= 0
d99 - x246 >= 0
d99 - x248 >= 0
d99 - x250 >= 0
d99 - x252 >= 0
d99 - x253 >= 0
d99 - x254 >= 0
d99 - x255 >= 0
\XOR
x209 - x252 = 0
\XOR
x211 - x253 = 0
\XOR
x213 - x254 = 0
\XOR
x215 - x255 = 0
\Identity
\Identity
\Identity
\Identity
\Identity
\Identity
\Identity
\Identity
\Identity
\Identity
\Identity
\Identity
\Identity
\Identity
\Identity
\Identity
\BRANCH
x221 + x256 + x257 - 2 d100 >= 0
d100 - x221 >= 0
d100 - x256 >= 0
d100 - x257 >= 0
\BRANCH
x223 + x258 + x259 - 2 d101 >= 0
d101 - x223 >= 0
d101 - x258 >= 0
d101 - x259 >= 0
\BRANCH
x225 + x260 + x261 - 2 d102 >= 0
d102 - x225 >= 0
d102 - x260 >= 0
d102 - x261 >= 0
\BRANCH
x227 + x262 + x263 - 2 d103 >= 0
d103 - x227 >= 0
d103 - x262 >= 0
d103 - x263 >= 0
\Clefia S0
\M_0
x256 + x258 + x260 + x262 + x264 + x265 + x266 + x267 - 5 d104 >= 0
d104 - x256 >= 0
d104 - x258 >= 0
d104 - x260 >= 0
d104 - x262 >= 0
d104 - x264 >= 0
d104 - x265 >= 0
d104 - x266 >= 0
d104 - x267 >= 0
\XOR
x245 - x264 = 0
\XOR
x247 - x265 = 0
\XOR
x249 - x266 = 0
\XOR
x251 - x267 = 0
\BRANCH
x209 + x268 + x269 - 2 d105 >= 0
d105 - x209 >= 0
d105 - x268 >= 0
d105 - x269 >= 0
\BRANCH
x211 + x270 + x271 - 2 d106 >= 0
d106 - x211 >= 0
d106 - x270 >= 0
d106 - x271 >= 0
\BRANCH
x213 + x272 + x273 - 2 d107 >= 0
d107 - x213 >= 0
d107 - x272 >= 0
d107 - x273 >= 0
\BRANCH
x215 + x274 + x275 - 2 d108 >= 0
d108 - x215 >= 0
d108 - x274 >= 0
d108 - x275 >= 0
\Clefia S1
\M_1
x268 + x270 + x272 + x274 + x276 + x277 + x278 + x279 - 5 d109 >= 0
d109 - x268 >= 0
d109 - x270 >= 0
d109 - x272 >= 0
d109 - x274 >= 0
d109 - x276 >= 0
d109 - x277 >= 0
d109 - x278 >= 0
d109 - x279 >= 0
\XOR
x233 - x276 = 0
\XOR
x235 - x277 = 0
\XOR
x237 - x278 = 0
\XOR
x239 - x279 = 0
\Identity
\Identity
\Identity
\Identity
\Identity
\Identity
\Identity
\Identity
\Identity
\Identity
\Identity
\Identity
\Identity
\Identity
\Identity
\Identity
\BRANCH
x245 + x280 + x281 - 2 d110 >= 0
d110 - x245 >= 0
d110 - x280 >= 0
d110 - x281 >= 0
\BRANCH
x247 + x282 + x283 - 2 d111 >= 0
d111 - x247 >= 0
d111 - x282 >= 0
d111 - x283 >= 0
\BRANCH
x249 + x284 + x285 - 2 d112 >= 0
d112 - x249 >= 0
d112 - x284 >= 0
d112 - x285 >= 0
\BRANCH
x251 + x286 + x287 - 2 d113 >= 0
d113 - x251 >= 0
d113 - x286 >= 0
d113 - x287 >= 0
\Clefia S0
\M_0
x280 + x282 + x284 + x286 + x288 + x289 + x290 + x291 - 5 d114 >= 0
d114 - x280 >= 0
d114 - x282 >= 0
d114 - x284 >= 0
d114 - x286 >= 0
d114 - x288 >= 0
d114 - x289 >= 0
d114 - x290 >= 0
d114 - x291 >= 0
\XOR
x269 - x288 = 0
\XOR
x271 - x289 = 0
\XOR
x273 - x290 = 0
\XOR
x275 - x291 = 0
\BRANCH
x233 + x292 + x293 - 2 d115 >= 0
d115 - x233 >= 0
d115 - x292 >= 0
d115 - x293 >= 0
\BRANCH
x235 + x294 + x295 - 2 d116 >= 0
d116 - x235 >= 0
d116 - x294 >= 0
d116 - x295 >= 0
\BRANCH
x237 + x296 + x297 - 2 d117 >= 0
d117 - x237 >= 0
d117 - x296 >= 0
d117 - x297 >= 0
\BRANCH
x239 + x298 + x299 - 2 d118 >= 0
d118 - x239 >= 0
d118 - x298 >= 0
d118 - x299 >= 0
\Clefia S1
\M_1
x292 + x294 + x296 + x298 + x300 + x301 + x302 + x303 - 5 d119 >= 0
d119 - x292 >= 0
d119 - x294 >= 0
d119 - x296 >= 0
d119 - x298 >= 0
d119 - x300 >= 0
d119 - x301 >= 0
d119 - x302 >= 0
d119 - x303 >= 0
\XOR
x257 - x300 = 0
\XOR
x259 - x301 = 0
\XOR
x261 - x302 = 0
\XOR
x263 - x303 = 0
\Identity
\Identity
\Identity
\Identity
\Identity
\Identity
\Identity
\Identity
\Identity
\Identity
\Identity
\Identity
\Identity
\Identity
\Identity
\Identity
\BRANCH
x269 + x304 + x305 - 2 d120 >= 0
d120 - x269 >= 0
d120 - x304 >= 0
d120 - x305 >= 0
\BRANCH
x271 + x306 + x307 - 2 d121 >= 0
d121 - x271 >= 0
d121 - x306 >= 0
d121 - x307 >= 0
\BRANCH
x273 + x308 + x309 - 2 d122 >= 0
d122 - x273 >= 0
d122 - x308 >= 0
d122 - x309 >= 0
\BRANCH
x275 + x310 + x311 - 2 d123 >= 0
d123 - x275 >= 0
d123 - x310 >= 0
d123 - x311 >= 0
\Clefia S0
\M_0
x304 + x306 + x308 + x310 + x312 + x313 + x314 + x315 - 5 d124 >= 0
d124 - x304 >= 0
d124 - x306 >= 0
d124 - x308 >= 0
d124 - x310 >= 0
d124 - x312 >= 0
d124 - x313 >= 0
d124 - x314 >= 0
d124 - x315 >= 0
\XOR
x293 - x312 = 0
\XOR
x295 - x313 = 0
\XOR
x297 - x314 = 0
\XOR
x299 - x315 = 0
\BRANCH
x257 + x316 + x317 - 2 d125 >= 0
d125 - x257 >= 0
d125 - x316 >= 0
d125 - x317 >= 0
\BRANCH
x259 + x318 + x319 - 2 d126 >= 0
d126 - x259 >= 0
d126 - x318 >= 0
d126 - x319 >= 0
\BRANCH
x261 + x320 + x321 - 2 d127 >= 0
d127 - x261 >= 0
d127 - x320 >= 0
d127 - x321 >= 0
\BRANCH
x263 + x322 + x323 - 2 d128 >= 0
d128 - x263 >= 0
d128 - x322 >= 0
d128 - x323 >= 0
\Clefia S1
\M_1
x316 + x318 + x320 + x322 + x324 + x325 + x326 + x327 - 5 d129 >= 0
d129 - x316 >= 0
d129 - x318 >= 0
d129 - x320 >= 0
d129 - x322 >= 0
d129 - x324 >= 0
d129 - x325 >= 0
d129 - x326 >= 0
d129 - x327 >= 0
\XOR
x281 - x324 = 0
\XOR
x283 - x325 = 0
\XOR
x285 - x326 = 0
\XOR
x287 - x327 = 0
\Identity
\Identity
\Identity
\Identity
\Identity
\Identity
\Identity
\Identity
\Identity
\Identity
\Identity
\Identity
\Identity
\Identity
\Identity
\Identity
\Identity
\Identity
\Identity
\Identity
\Identity
\Identity
\Identity
\Identity
\Identity
\Identity
\Identity
\Identity
\Identity
\Identity
\Identity
\Identity
x0 + x1 + x2 + x3 + x4 + x5 + x6 + x7 + x8 + x9 + x10 + x11 + x12 + x13 + x14 + x15 >= 1

Binary
d0
d1
d2
d3
d4
d5
d6
d7
d8
d9
d10
d11
d12
d13
d14
d15
d16
d17
d18
d19
d20
d21
d22
d23
d24
d25
d26
d27
d28
d29
d30
d31
d32
d33
d34
d35
d36
d37
d38
d39
d40
d41
d42
d43
d44
d45
d46
d47
d48
d49
d50
d51
d52
d53
d54
d55
d56
d57
d58
d59
d60
d61
d62
d63
d64
d65
d66
d67
d68
d69
d70
d71
d72
d73
d74
d75
d76
d77
d78
d79
d80
d81
d82
d83
d84
d85
d86
d87
d88
d89
d90
d91
d92
d93
d94
d95
d96
d97
d98
d99
d100
d101
d102
d103
d104
d105
d106
d107
d108
d109
d110
d111
d112
d113
d114
d115
d116
d117
d118
d119
d120
d121
d122
d123
d124
d125
d126
d127
d128
d129
x0
x1
x2
x3
x4
x5
x6
x7
x8
x9
x10
x11
x12
x13
x14
x15
x16
x17
x18
x19
x20
x21
x22
x23
x24
x25
x26
x27
x28
x29
x30
x31
x32
x33
x34
x35
x36
x37
x38
x39
x40
x41
x42
x43
x44
x45
x46
x47
x48
x49
x50
x51
x52
x53
x54
x55
x56
x57
x58
x59
x60
x61
x62
x63
x64
x65
x66
x67
x68
x69
x70
x71
x72
x73
x74
x75
x76
x77
x78
x79
x80
x81
x82
x83
x84
x85
x86
x87
x88
x89
x90
x91
x92
x93
x94
x95
x96
x97
x98
x99
x100
x101
x102
x103
x104
x105
x106
x107
x108
x109
x110
x111
x112
x113
x114
x115
x116
x117
x118
x119
x120
x121
x122
x123
x124
x125
x126
x127
x128
x129
x130
x131
x132
x133
x134
x135
x136
x137
x138
x139
x140
x141
x142
x143
x144
x145
x146
x147
x148
x149
x150
x151
x152
x153
x154
x155
x156
x157
x158
x159
x160
x161
x162
x163
x164
x165
x166
x167
x168
x169
x170
x171
x172
x173
x174
x175
x176
x177
x178
x179
x180
x181
x182
x183
x184
x185
x186
x187
x188
x189
x190
x191
x192
x193
x194
x195
x196
x197
x198
x199
x200
x201
x202
x203
x204
x205
x206
x207
x208
x209
x210
x211
x212
x213
x214
x215
x216
x217
x218
x219
x220
x221
x222
x223
x224
x225
x226
x227
x228
x229
x230
x231
x232
x233
x234
x235
x236
x237
x238
x239
x240
x241
x242
x243
x244
x245
x246
x247
x248
x249
x250
x251
x252
x253
x254
x255
x256
x257
x258
x259
x260
x261
x262
x263
x264
x265
x266
x267
x268
x269
x270
x271
x272
x273
x274
x275
x276
x277
x278
x279
x280
x281
x282
x283
x284
x285
x286
x287
x288
x289
x290
x291
x292
x293
x294
x295
x296
x297
x298
x299
x300
x301
x302
x303
x304
x305
x306
x307
x308
x309
x310
x311
x312
x313
x314
x315
x316
x317
x318
x319
x320
x321
x322
x323
x324
x325
x326
x327
End